sat
(:binary-propagations  1371
 :decisions            1494
 :del-clause           495
 :final-checks         4
 :max-generation       1
 :max-memory           28.24
 :memory               22.48
 :mk-bool-var          2812
 :mk-clause            812
 :mk-clause-binary     1812
 :num-allocs           145341058
 :num-checks           1
 :propagations         1692
 :quant-instantiations 500
 :restarts             3
 :rlimit-count         1506639
 :time                 0.26)
